container_length = 75;
container_width = 36;
container_height = 24;
n = 8;
boxes = [|3, 2, 2, 39
         |4, 3, 3, 39
         |10,2, 2, 17
         |4, 3, 2, 45
         |15,2, 2, 30
         |5, 5, 2, 25
         |8, 4, 3, 23
         |6, 3, 3, 32|];
